202
201
199
201
200
201
200
200
199
199
198
198
197
196
195
195
192
194
194
193
194
193
192
193
192
191
190
190
188
189
189
187
188
186
187
187
186
187
186
186
186
186
185
185
185
185
185
185
184
184
184
182
184
183
183
182
181
181
177
181
180
179
178
178
177
176
176
175
172
175
174
173
171
169
172
170
168
165
169
169
171
170
169
168
168
168
167
166
166
162
164
165
164
163
162
161
161
160
159
148
157
156
158
157
156
155
152
154
153
152
151
151
150
150
149
150
148
149
148
148
147
147
148
145
147
146
146
145
144
142
145
143
144
143
143
141
140
142
140
139
141
138
137
139
138
140
137
139
138
138
136
136
137
137
134
136
135
133
132
135
134
133
132
132
131
131
127
128
130
129
130
129
127
127
127
128
126
126
126
127
125
126
125
124
124
123
122
123
122
122
121
120
121
120
121
120
119
119
120
114
119
118
118
114
117
115
117
112
116
115
116
114
111
110
115
114
114
113
113
113
112
111
111
110
109
109
107
108
108
106
106
105
105
107
106
105
105
105
103
104
102
101
103
104
104
103
102
100
102
101
100
99
95
98
99
97
96
97
98
97
96
95
95
94
93
92
91
90
89
88
87
87
86
85
88
87
86
85
85
84
84
84
81
84
83
77
83
82
81
80
78
79
77
78
77
76
77
76
74
75
73
76
75
74
66
72
72
73
71
72
71
72
71
70
70
67
70
69
68
65
67
67
66
66
65
65
65
64
63
64
62
63
62
63
63
61
62
61
61
62
60
61
60
60
59
59
59
59
57
58
58
57
57
56
57
56
56
55
56
55
55
54
54
53
53
53
52
52
51
52
51
50
51
52
51
51
50
50
50
49
48
47
47
49
48
48
49
47
48
47
46
46
44
42
46
45
44
44
43
39
43
42
40
39
41
38
40
38
39
38
34
37
37
37
36
36
36
35
36
34
34
35
32
33
34
33
33
33
32
32
30
28
32
31
27
26
31
28
30
29
29
26
28
27
26
25
21
25
25
24
19
23
22
20
19
21
18
20
17
17
16
20
19
16
18
13
17
16
16
15
15
15
14
15
14
13
12
14
13
7
12
11
11
10
9
8
7
6
5
5
6
4
3
5
4
3
0
2
2
1
0